n_res = 4;
rcap = [12, 8, 66, 60];
rtype = [1, 1, 2, 2];
n_tasks = 12;
modes = [ {1, 2, 3}, {4, 5, 6}, {7, 8, 9}, {10, 11, 12}, {13, 14, 15}, {16, 17, 18}, {19, 20, 21}, {22, 23, 24}, {25, 26, 27}, {28, 29, 30}, {31, 32, 33}, {34, 35, 36} ];
succ = [ {4, 7}, {5, 6, 7}, {9, 10, 11}, {6, 8}, {8, 9, 11}, {9, 10, 11}, {8, 12}, {10}, {12}, {}, {}, {} ];
n_opt = 36;
dur = [3, 5, 8, 3, 5, 8, 1, 2, 7, 2, 4, 5, 1, 6, 6, 1, 5, 9, 8, 8, 8, 2, 3, 4, 3, 6, 9, 3, 6, 6, 3, 4, 9, 4, 10, 10];
rreq = [|  2,  2,  2,  7,  6,  6,  7,  0,  0,  4,  0,  3,  9,  9,  9,  0,  8,  0,  0,  0,  7, 10, 10,  0, 10,  8,  7,  0,  4,  0,  0,  0,  0,  0,  0,  0
        |  0,  0,  0,  0,  0,  0,  0,  3,  3,  0,  4,  0,  0,  0,  0,  3,  0,  2,  9,  7,  0,  0,  0, 10,  0,  0,  0,  8,  0,  7,  6,  6,  5,  8,  7,  5
        |  0,  0,  5,  0,  9,  4,  0,  5,  2,  4,  4,  0,  0,  7,  0,  0,  7,  5,  3,  4,  0,  0,  6,  0,  6,  0,  6,  0,  0,  7,  0,  5,  0,  0,  0,  1
        |  8,  7,  0,  4,  0,  0,  4,  0,  0,  0,  0,  3,  8,  0,  7,  3,  0,  0,  0,  0,  3,  2,  0,  2,  0,  5,  0,  8,  7,  0,  7,  0,  3,  5,  5,  0 |];
